TCS_Benchmarks/redos_fix/snort1_output_distinct_2380_2379_33_0.txt
([^\n\r]*)([^\n\r]*)
([^\n\r]*)([dD][aA][yY][sS][^\n\r]*[hH][oO][uU][rR][sS][^\n\r]*[mM][iI][nN][uU][tT][eE][sS])([^\n\r]*)